row=7;
Board=[|9,5,0,4,3,7,0,2,10,0|3,0,9,0,2,6,5,0,1,0|5,1,6,0,0,4,0,0,0,0|0,0,2,0,5,0,1,0,6,10|6,7,10,9,0,4,5,0,0,8|10,0,0,0,7,0,2,0,0,0|0,0,6,0,0,10,1,0,0,0|];
bottom=[129600,22050,155520,241920,33600,181440,100,36288,5400,645120]